data/processed_heuristic-threshold/instances/1/9/ds_707_courier_1656/pairwise.tsp
NAME: ds_707_courier_1656
TYPE: TSP
COMMENT: nil
DIMENSION: 10
EDGE_WEIGHT_TYPE: EXPLICIT
EDGE_WEIGHT_FORMAT: FULL_MATRIX
EDGE_WEIGHT_SECTION
9999 5447 3124 3081 3025 4174 3730 3954 3424 50 
5447 9999 7048 6914 7243 7629 7426 7682 6983 5401 
3124 7048 9999 148 384 1071 609 832 461 3156 
3081 6914 148 9999 511 1094 656 901 396 3112 
3025 7243 384 511 9999 1314 844 995 833 3061 
4174 7629 1071 1094 1314 9999 473 383 771 4204 
3730 7426 609 656 844 473 9999 262 443 3762 
3954 7682 832 901 995 383 262 9999 702 3987 
3424 6983 461 396 833 771 443 702 9999 3452 
50 5401 3156 3112 3061 4204 3762 3987 3452 9999 
