data/processed_heuristic-threshold/instances/1/9/ds_707_courier_1656/pairwise.sol
10
0 9 1 8 5 7 6 3 2 4 
